det_equiv.mps
NAME          
ROWS
 N  OBJ
 L  c1_1
 L  c2_1
 L  c3_1
 L  c4_1
 L  c5_1
 L  c6_1
 L  c7_1
 L  c8_1
 L  c9_1
 L  c10_1
 E  c1
 E  c2
 E  c3
 E  c4
 E  c5
 E  c6
 E  c7
 E  c8
 E  c9
 E  c10
 E  c11
 E  c12
 E  c13
 E  c14
 E  c15
 E  c16
 E  c17
 E  c18
 E  c19
 E  c20
 E  c21
 E  c22
 E  c23
 E  c24
 E  c25
 E  c26
 E  c27
 E  c28
 E  c29
 E  c30
 E  c31
 E  c32
 L  c1_2
 L  c2_2
 L  c3_2
 L  c1_3
 L  c2_3
 L  c3_3
COLUMNS
    lreal[Reservoir:_Flasjön
]_in#1 c2_1      -1
    lreal[Reservoir:_Flasjön
]_in#1 c1        -1
    lind[Reservoir:_Flasjön
]_in#1 c2        -1
    lind[Reservoir:_Flasjön
]_in#1 c1_3      -1
    Qnom[Reservoir:_Flasjön
]_in#1 OBJ       0
    x[1,1]_in#1 OBJ       0
    x[2,1]_in#1 OBJ       0
    Qinflow[Reservoir:_Flasjön
]#2 c6        -1
    Qinflow[Reservoir:_Flasjön
]#2_1 c14       -1
    lreal[Reservoir:_Flasjön
]_out#1 c1        1
    lreal[Reservoir:_Flasjön
]_out#1 c24       1
    lreal[Reservoir:_Flasjön
]_out#1 c29       1
    zup[1]#1  OBJ       0
    zdown[1]#1 OBJ       0
    Qnomchange[Reservoir:_Flasjön
]#1 c2_1      1
    Qnomchange[Reservoir:_Flasjön
]#1 c3        -1
    Qnomchange[Reservoir:_Flasjön
]#1 c1_2      1
    xchange[1,1]#1 c1_1      1
    xchange[1,1]#1 c4        -1
    xchange[2,1]#1 c1_1      -1
    xchange[2,1]#1 c5        -1
    Qreal[Reservoir:_Flasjön
,1]#1 OBJ       0
    y[1]#1    OBJ       0
    lreal[Reservoir:_Flasjön
]_out#2 c6        1
    zup[1]#2  c11       -1
    zup[1]#2  OBJ       -0.5
    zdown[1]#2 c11       1
    zdown[1]#2 OBJ       -0.5
    Qnomchange[Reservoir:_Flasjön
]#2 c8        -1
    Qnomchange[Reservoir:_Flasjön
]#2 c2_2      1
    xchange[1,1]#2 c3_1      1
    xchange[1,1]#2 c9        -1
    xchange[2,1]#2 c3_1      -1
    xchange[2,1]#2 c10       -1
    Qreal[Reservoir:_Flasjön
,1]#2 c4_1      -0.31
    Qreal[Reservoir:_Flasjön
,1]#2 c12       1
    y[1]#2    c11       1
    y[1]#2    c13       1
    y[1]#2    OBJ       0.0058
    _[23]#2   OBJ       0
    lreal[Reservoir:_Flasjön
]_out#2_1 c14       1
    zup[1]#2_1 c19       -1
    zup[1]#2_1 OBJ       -0.5
    zdown[1]#2_1 c19       1
    zdown[1]#2_1 OBJ       -0.5
    Qnomchange[Reservoir:_Flasjön
]#2_1 c16       -1
    Qnomchange[Reservoir:_Flasjön
]#2_1 c3_2      1
    xchange[1,1]#2_1 c7_1      1
    xchange[1,1]#2_1 c17       -1
    xchange[2,1]#2_1 c7_1      -1
    xchange[2,1]#2_1 c18       -1
    Qreal[Reservoir:_Flasjön
,1]#2_1 c8_1      -0.31
    Qreal[Reservoir:_Flasjön
,1]#2_1 c20       1
    y[1]#2_1  c19       1
    y[1]#2_1  c21       1
    y[1]#2_1  c22       1
    y[1]#2_1  OBJ       0.179
    _[23]#2_1 OBJ       0
    _[23]#1   OBJ       0
    MARKER    'MARKER'                 'INTORG'
    deltastart[Power_Plant:_Flasjö
,1]#1 OBJ       0
    deltaind[Reservoir:_Flasjön
]#1 OBJ       0
    u[Power_Plant:_Flasjö
,1]#1 OBJ       0
    deltastart[Power_Plant:_Flasjö
,1]#2 OBJ       -0.05
    deltaind[Reservoir:_Flasjön
]#2 OBJ       0
    u[Power_Plant:_Flasjö
,1]#2 c6_1      -0.0899
    deltastart[Power_Plant:_Flasjö
,1]#2_1 OBJ       -0.05
    deltaind[Reservoir:_Flasjön
]#2_1 OBJ       0
    u[Power_Plant:_Flasjö
,1]#2_1 c10_1     -0.0899
    MARKER    'MARKER'                 'INTEND'
    lind[Reservoir:_Flasjön
]_out#1 c2        1
    lind[Reservoir:_Flasjön
]_out#1 c27       1
    lind[Reservoir:_Flasjön
]_out#1 c32       1
    Qnom[Reservoir:_Flasjön
]_out#1 c3        1
    Qnom[Reservoir:_Flasjön
]_out#1 c25       1
    Qnom[Reservoir:_Flasjön
]_out#1 c30       1
    x[1,1]_out#1 c4        1
    x[1,1]_out#1 c26       1
    x[1,1]_out#1 c31       1
    x[2,1]_out#1 c5        1
    x[2,1]_out#1 c23       1
    x[2,1]_out#1 c28       1
    w[Power_Plant:_Flasjö
,1]#1 OBJ       0
    Qinflow[Reservoir:_Flasjön
]#1 OBJ       0
    lreal[Reservoir:_Flasjön
]_in#2 c6        -1
    lreal[Reservoir:_Flasjön
]_in#2 c24       -1
    lind[Reservoir:_Flasjön
]_in#2 c7        -1
    lind[Reservoir:_Flasjön
]_in#2 c27       -1
    lind[Reservoir:_Flasjön
]_in#2 c2_3      -1
    lind[Reservoir:_Flasjön
]_out#2 c7        1
    Qnom[Reservoir:_Flasjön
]_in#2 c6        1
    Qnom[Reservoir:_Flasjön
]_in#2 c7        1
    Qnom[Reservoir:_Flasjön
]_in#2 c12       -1
    Qnom[Reservoir:_Flasjön
]_in#2 c25       -1
    Qnom[Reservoir:_Flasjön
]_out#2 c8        1
    x[1,1]_in#2 c13       -0.9884
    x[1,1]_in#2 c26       -1
    x[1,1]_out#2 c9        1
    x[2,1]_in#2 c13       -0.0116
    x[2,1]_in#2 c23       -1
    x[2,1]_out#2 c10       1
    w[Power_Plant:_Flasjö
,1]#2 c4_1      1
    w[Power_Plant:_Flasjö
,1]#2 c5_1      -1
    w[Power_Plant:_Flasjö
,1]#2 c6_1      1
    w[Power_Plant:_Flasjö
,1]#2 c11       -1
    lreal[Reservoir:_Flasjön
]_in#2_1 c14       -1
    lreal[Reservoir:_Flasjön
]_in#2_1 c29       -1
    lind[Reservoir:_Flasjön
]_in#2_1 c15       -1
    lind[Reservoir:_Flasjön
]_in#2_1 c32       -1
    lind[Reservoir:_Flasjön
]_in#2_1 c3_3      -1
    lind[Reservoir:_Flasjön
]_out#2_1 c15       1
    Qnom[Reservoir:_Flasjön
]_in#2_1 c14       1
    Qnom[Reservoir:_Flasjön
]_in#2_1 c15       1
    Qnom[Reservoir:_Flasjön
]_in#2_1 c20       -1
    Qnom[Reservoir:_Flasjön
]_in#2_1 c30       -1
    Qnom[Reservoir:_Flasjön
]_out#2_1 c16       1
    x[1,1]_in#2_1 c21       -0.9884
    x[1,1]_in#2_1 c22       -0.642
    x[1,1]_in#2_1 c31       -1
    x[1,1]_out#2_1 c17       1
    x[2,1]_in#2_1 c21       -0.0116
    x[2,1]_in#2_1 c22       -0.358
    x[2,1]_in#2_1 c28       -1
    x[2,1]_out#2_1 c18       1
    w[Power_Plant:_Flasjö
,1]#2_1 c8_1      1
    w[Power_Plant:_Flasjö
,1]#2_1 c9_1      -1
    w[Power_Plant:_Flasjö
,1]#2_1 c10_1     1
    w[Power_Plant:_Flasjö
,1]#2_1 c19       -1
RHS
    rhs       c1_1      0
    rhs       c2_1      0
    rhs       c3_1      0
    rhs       c4_1      0
    rhs       c5_1      0
    rhs       c6_1      0
    rhs       c7_1      0
    rhs       c8_1      0
    rhs       c9_1      0
    rhs       c10_1     0
    rhs       c1        0
    rhs       c2        0
    rhs       c3        0
    rhs       c4        0
    rhs       c5        0
    rhs       c6        0
    rhs       c7        1
    rhs       c8        0
    rhs       c9        0
    rhs       c10       0
    rhs       c11       0
    rhs       c12       0
    rhs       c13       0
    rhs       c14       0
    rhs       c15       1
    rhs       c16       0
    rhs       c17       0
    rhs       c18       0
    rhs       c19       0
    rhs       c20       0
    rhs       c21       0
    rhs       c22       0
    rhs       c23       0
    rhs       c24       0
    rhs       c25       0
    rhs       c26       0
    rhs       c27       0
    rhs       c28       0
    rhs       c29       0
    rhs       c30       0
    rhs       c31       0
    rhs       c32       0
    rhs       c1_2      1
    rhs       c2_2      1
    rhs       c3_2      1
    rhs       c1_3      0
    rhs       c2_3      0
    rhs       c3_3      0
RANGES
BOUNDS
 FX bounds    lreal[Reservoir:_Flasjön
]_in#1 35000
 FX bounds    lind[Reservoir:_Flasjön
]_in#1 35000
 FX bounds    Qnom[Reservoir:_Flasjön
]_in#1 0
 FX bounds    x[1,1]_in#1 0
 FX bounds    x[2,1]_in#1 0
 FX bounds    Qinflow[Reservoir:_Flasjön
]#2 0
 FX bounds    Qinflow[Reservoir:_Flasjön
]#2_1 0
 LO bounds    lreal[Reservoir:_Flasjön
]_out#1 0
 UP bounds    lreal[Reservoir:_Flasjön
]_out#1 40000
 LO bounds    zup[1]#1  0
 PL bounds    zup[1]#1
 LO bounds    zdown[1]#1 0
 PL bounds    zdown[1]#1 
 LO bounds    Qnomchange[Reservoir:_Flasjön
]#1 0
 PL bounds    Qnomchange[Reservoir:_Flasjön
]#1 
 LO bounds    xchange[1,1]#1 0
 UP bounds    xchange[1,1]#1 0.0899
 LO bounds    xchange[2,1]#1 0
 UP bounds    xchange[2,1]#1 0.0899
 LO bounds    Qreal[Reservoir:_Flasjön
,1]#1 0
 PL bounds    Qreal[Reservoir:_Flasjön
,1]#1 
 LO bounds    y[1]#1    0
 PL bounds    y[1]#1
 LO bounds    lreal[Reservoir:_Flasjön
]_out#2 0
 UP bounds    lreal[Reservoir:_Flasjön
]_out#2 40000
 LO bounds    zup[1]#2  0
 PL bounds    zup[1]#2
 LO bounds    zdown[1]#2 0
 PL bounds    zdown[1]#2 
 LO bounds    Qnomchange[Reservoir:_Flasjön
]#2 0
 PL bounds    Qnomchange[Reservoir:_Flasjön
]#2 
 LO bounds    xchange[1,1]#2 0
 UP bounds    xchange[1,1]#2 0.0899
 LO bounds    xchange[2,1]#2 0
 UP bounds    xchange[2,1]#2 0.0899
 LO bounds    Qreal[Reservoir:_Flasjön
,1]#2 0
 PL bounds    Qreal[Reservoir:_Flasjön
,1]#2 
 LO bounds    y[1]#2    0
 PL bounds    y[1]#2
 FX bounds    _[23]#2   0
 LO bounds    lreal[Reservoir:_Flasjön
]_out#2_1 0
 UP bounds    lreal[Reservoir:_Flasjön
]_out#2_1 40000
 LO bounds    zup[1]#2_1 0
 PL bounds    zup[1]#2_1 
 LO bounds    zdown[1]#2_1 0
 PL bounds    zdown[1]#2_1 
 LO bounds    Qnomchange[Reservoir:_Flasjön
]#2_1 0
 PL bounds    Qnomchange[Reservoir:_Flasjön
]#2_1 
 LO bounds    xchange[1,1]#2_1 0
 UP bounds    xchange[1,1]#2_1 0.0899
 LO bounds    xchange[2,1]#2_1 0
 UP bounds    xchange[2,1]#2_1 0.0899
 LO bounds    Qreal[Reservoir:_Flasjön
,1]#2_1 0
 PL bounds    Qreal[Reservoir:_Flasjön
,1]#2_1 
 LO bounds    y[1]#2_1  0
 PL bounds    y[1]#2_1
 FX bounds    _[23]#2_1 0
 MI bounds    _[23]#1
 UP bounds    _[23]#1   1000
 BV bounds    deltastart[Power_Plant:_Flasjö
,1]#1 
 BV bounds    deltaind[Reservoir:_Flasjön
]#1 
 BV bounds    u[Power_Plant:_Flasjö
,1]#1 
 BV bounds    deltastart[Power_Plant:_Flasjö
,1]#2 
 BV bounds    deltaind[Reservoir:_Flasjön
]#2 
 BV bounds    u[Power_Plant:_Flasjö
,1]#2 
 BV bounds    deltastart[Power_Plant:_Flasjö
,1]#2_1 
 BV bounds    deltaind[Reservoir:_Flasjön
]#2_1 
 BV bounds    u[Power_Plant:_Flasjö
,1]#2_1 
 FR bounds    lind[Reservoir:_Flasjön
]_out#1 
 FR bounds    Qnom[Reservoir:_Flasjön
]_out#1 
 FR bounds    x[1,1]_out#1 
 FR bounds    x[2,1]_out#1 
 FR bounds    w[Power_Plant:_Flasjö
,1]#1 
 FR bounds    Qinflow[Reservoir:_Flasjön
]#1 
 FR bounds    lreal[Reservoir:_Flasjön
]_in#2 
 FR bounds    lind[Reservoir:_Flasjön
]_in#2 
 FR bounds    lind[Reservoir:_Flasjön
]_out#2 
 FR bounds    Qnom[Reservoir:_Flasjön
]_in#2 
 FR bounds    Qnom[Reservoir:_Flasjön
]_out#2 
 FR bounds    x[1,1]_in#2 
 FR bounds    x[1,1]_out#2 
 FR bounds    x[2,1]_in#2 
 FR bounds    x[2,1]_out#2 
 FR bounds    w[Power_Plant:_Flasjö
,1]#2 
 FR bounds    lreal[Reservoir:_Flasjön
]_in#2_1 
 FR bounds    lind[Reservoir:_Flasjön
]_in#2_1 
 FR bounds    lind[Reservoir:_Flasjön
]_out#2_1 
 FR bounds    Qnom[Reservoir:_Flasjön
]_in#2_1 
 FR bounds    Qnom[Reservoir:_Flasjön
]_out#2_1 
 FR bounds    x[1,1]_in#2_1 
 FR bounds    x[1,1]_out#2_1 
 FR bounds    x[2,1]_in#2_1 
 FR bounds    x[2,1]_out#2_1 
 FR bounds    w[Power_Plant:_Flasjö
,1]#2_1 
INDICATORS
 IF c1_2      deltaind[Reservoir:_Flasjön
]#1 1
 IF c2_2      deltaind[Reservoir:_Flasjön
]#2 1
 IF c3_2      deltaind[Reservoir:_Flasjön
]#2_1 1
 IF c1_3      deltaind[Reservoir:_Flasjön
]#1 0
 IF c2_3      deltaind[Reservoir:_Flasjön
]#2 0
 IF c3_3      deltaind[Reservoir:_Flasjön
]#2_1 0
ENDATA
